WARNING: for repeatability, setting FPU to use double precision
============================[ Problem Statistics ]=============================
|                                                                             |
|  Number of variables:           100                                         |
|  Number of clauses:             449                                         |
|  Parse time:                   0.00 s                                       |
|  Eliminated clauses:           0.00 Mb                                      |
|  Simplification time:          0.00 s                                       |
|                                                                             |
============================[ Search Statistics ]==============================
| Conflicts |          ORIGINAL         |          LEARNT          | Progress |
|           |    Vars  Clauses Literals |    Limit  Clauses Lit/Cl |          |
===============================================================================
|       100 |      98      447     1352 |      163      100      7 |  0.010 % |
|       250 |      98      447     1352 |      180      162      6 |  0.070 % |
===============================================================================
restarts              : 3
conflicts             : 366            (88044 /sec)
decisions             : 460            (0.00 % random) (110657 /sec)
propagations          : 8124           (1954294 /sec)
conflict literals     : 2198           (20.25 % deleted)
Memory used           : 13.00 MB
CPU time              : 0.004157 s

SATISFIABLE
